n = 15;
m = 44;

max_len = 7;
word_lens = [ 4, 4, 4, 4, 5, 5, 5, 5, 5, 5, 5, 5, 5, 5, 5, 5, 5, 5, 5, 5, 5, 6, 6, 6, 6, 6, 6, 6, 6, 6, 6, 6, 6, 6, 7, 7, 7, 7, 7, 7, 7, 7, 7, 7 ];
words = [| D, A, T, A, E, E, E | T, E, S, T, E, E, E | R, E, L, U, E, E, E | V, T, O, L, E, E, E | L, O, G, I, C, E, E | S, O, N, A, R, E, E | R, O, B, O, T, E, E | M, O, U, S, E, E, E | L, I, D, A, R, E, E | R, A, D, A, R, E, E | L, A, S, E, R, E, E | A, S, I, M, O, E, E | C, H, E, S, S, E, E | D, A, R, P, A, E, E | I, B, M, E, R, E, E | J, O, U, L, E, E, E | G, O, F, A, I, E, E | C, H, I, N, A, E, E | D, E, L, F, T, E, E | W, H, E, E, L, E, E | C, R, A, F, T, E, E | D, E, V, I, C, E, E | M, A, T, R, I, X, E | W, E, I, G, H, T, E | M, U, S, C, L, E, E | S, P, R, I, N, G, E | W, A, T, S, O, N, E | S, A, M, P, L, E, E | C, Y, B, O, R, G, E | O, P, T, I, C, S, E | G, O, O, G, L, E, E | D, E, N, V, E, R, E | M, O, D, U, L, E, E | F, A, M, I, L, Y, E | M, A, C, H, I, N, E | A, L, P, H, A, G, O | B, A, T, T, E, R, Y | T, H, E, O, R, E, M | T, A, C, T, I, L, E | A, D, A, L, I, N, E | U, N, I, M, A, T, E | D, R, O, P, O, U, T | D, E, C, O, D, E, R | A, N, D, R, O, I, D |];

pos_var_strat = smallest;
pos_val_strat = indomain_min;
